&CONTROL
    prefix      = 'lk99'
    calculation = 'nscf'
    tstress     = .true.
    tprnfor     = .true.
    outdir      = './out'
    pseudo_dir  = '../pp'
    verbosity   = 'high'
/
&SYSTEM
    ibrav       = 0
    nat         = 41
    ntyp        = 4
    ecutwfc     = 40
    ecutrho     = 160
    occupations = 'tetrahedra'
/
&ELECTRONS
    electron_maxstep = 100
    conv_thr         = 1e-09
    mixing_beta      = 0.7
    diago_david_ndim = 4
/
ATOMIC_SPECIES
Pb         207.2 Pb.pbe-dn-kjpaw_psl.1.0.0.UPF
Cu        63.546 Cu.pbe-spn-kjpaw_psl.1.0.0.UPF
P   30.973761998 P.pbe-nl-kjpaw_psl.1.0.0.UPF
O         15.999 O.pbe-n-kjpaw_psl.1.0.0.UPF
ATOMIC_POSITIONS angstrom
Pb       1.1293232294     3.7547448097     1.8340405970
Pb      -1.3023964628     7.9497623531     5.5916375765
Pb       1.1489751864     7.7008734208     1.8340405970
Pb      -1.2681567294     3.4974336207     5.5916375765
Pb      -2.2782984159     5.7448282092     1.8340405970
Pb       2.5705531922     5.7532504658     5.5916375765
Pb       4.9653411911     2.8667410733     0.0757794710
Pb       4.9653411911     2.8667410733     3.6777530328
Pb       0.0000000000     0.0000000000     3.8664200002
Cu       0.0000000000     0.0000000000     0.4705653209
P        8.2105722025     2.2426423547     1.7272170358
P        6.7113430460     0.4992594225     5.5576908611
P        3.8832110300     5.9892429296     1.7272170358
P        6.1426395162     5.5625638601     5.5576908611
P        2.8022403406     0.3683379355     1.7272170358
P        2.0420410111     2.5383999373     5.5576908611
O        6.7139137896     2.6538520455     1.8563204123
O        3.1386080324     8.4202916340     5.5507011195
O        4.2754221980     4.4874938779     1.8563204123
O       -3.8961492874     7.1081916914     5.5507011195
O        3.9066875856     1.4588772965     1.8563204123
O        0.7575412550     1.6719631142     5.5507011195
O       -1.0142168212     3.1313758775     0.6501859633
O        0.8614076797     8.5737741449     6.7308651389
O        2.7605985430     6.1561977489     0.6501859633
O       -2.8904688646     5.0593370810     6.7308651389
O       -1.7463817217     7.9128728132     0.6501859633
O        2.0290611848     3.5673352137     6.7308651389
O        5.8943805130     0.2560738791     4.2519893691
O       -0.9612700690     2.4666418617     3.0685432816
O        6.7617256411     4.9766463243     4.2519893691
O        3.3098017112     6.5344179893     3.0685432816
O        2.2399174191     3.3675030165     4.2519893691
O       -2.3485316423     8.1993865886     3.0685432816
O        8.2878846617     0.7382457515     1.3075648471
O        6.8662625520     2.0641280221     5.7234632213
O        5.1474004762     6.8083957849     1.3075648471
O        4.7099638023     4.9142937880     5.7234632213
O        1.4607384353     1.0535816834     1.3075648471
O        3.3197972189     1.6218014097     5.7234632213
O        0.0000000000     5.7334821466     2.1622751229
K_POINTS {automatic}
6 6 7 0 0 0 
CELL_PARAMETERS angstrom
    9.9306823821     0.0000000000     0.0000000000
   -4.9653411911     8.6002232198     0.0000000000
    0.0000000000     0.0000000000     7.4109945173
